
  22   10
  10   10   10   10   10   10   10   10   10   10

   0   0   0   0   0   0   0   0   0   0   0   3 2 4 5 
   3  10  10  10  10  10  10  10  10  10  10   2 9 3 
   8  10  10  10  10  10  10  10  10  10  10   3 11 8 6 
   9  10  10  10  10  10  10  10  10  10  10   3 9 8 6 
   2  10  10  10  10  10  10  10  10  10  10   2 8 7 
   4  10  10  10  10  10  10  10  10  10  10   3 18 12 7 
   3  10  10  10  10  10  10  10  10  10  10   4 20 19 13 10 
   8  10  10  10  10  10  10  10  10  10  10   5 18 16 15 13 12 
   1  10  10  10  10  10  10  10  10  10  10   5 21 16 14 13 12 
   7  10  10  10  10  10  10  10  10  10  10   3 17 15 14 
   2  10  10  10  10  10  10  10  10  10  10   3 21 16 12 
   5  10  10  10  10  10  10  10  10  10  10   1 22
   1  10  10  10  10  10  10  10  10  10  10   1 22
   2  10  10  10  10  10  10  10  10  10  10   1 22
   3  10  10  10  10  10  10  10  10  10  10   1 22
  10  10  10  10  10  10  10  10  10  10  10   1 22
   4  10  10  10  10  10  10  10  10  10  10   1 22
   7  10  10  10  10  10  10  10  10  10  10   1 22
   7  10  10  10  10  10  10  10  10  10  10   1 22
   8  10  10  10  10  10  10  10  10  10  10   1 22
   3  10  10  10  10  10  10  10  10  10  10   1 22
   0   0   0   0   0   0   0   0   0   0   0   0 
